100
300
50
0 0
8 68
55 55
18 83
26 34
26 17
62 91
36 66
52 49
76 3
15 47
14 6
23 68
50 97
67 13
72 96
77 69
19 90
31 83
92 72
51 60
90 72
36 52
82 39
84 74
65 77
29 48
10 43
8 56
42 33
60 20
26 96
27 92
10 9
55 1
15 65
25 36
0 97
82 47
40 60
32 97
98 66
57 73
7 35
65 22
36 78
65 27
43 34
60 74
92 88
66 84
0 0
50
60
30
70
60
50
50
30
30
60
70
70
40
60
60
30
50
70
50
40
60
50
70
40
70
50
60
30
70
60
50
50
30
30
60
70
70
40
60
60
30
50
70
50
40
60
50
70
40
70
